
Gurobi 9.5.1 (linux64) logging started Thu Jun 30 22:30:50 2022

Set parameter LogFile to value "../results/logs/log_facebook_combined_17_250_2022_06_30_22_30.log"
Gurobi Optimizer version 9.5.1 build v9.5.1rc2 (linux64)
Thread count: 8 physical cores, 8 logical processors, using up to 8 threads
Optimize a model with 41978 rows, 8078 columns and 150272 nonzeros
Model fingerprint: 0xf7bb1566
Variable types: 0 continuous, 8078 integer (8078 binary)
Coefficient statistics:
  Matrix range     [1e+00, 2e+01]
  Objective range  [1e+00, 1e+00]
  Bounds range     [1e+00, 1e+00]
  RHS range        [1e+00, 2e+02]
Found heuristic solution: objective 2061.0000000
Presolve removed 39756 rows and 6380 columns
Presolve time: 0.05s
Presolved: 2222 rows, 1698 columns, 21090 nonzeros
Variable types: 0 continuous, 1698 integer (1661 binary)
Found heuristic solution: objective 2105.0000000

Root relaxation: objective 2.547763e+03, 1047 iterations, 0.01 seconds (0.01 work units)

    Nodes    |    Current Node    |     Objective Bounds      |     Work
 Expl Unexpl |  Obj  Depth IntInf | Incumbent    BestBd   Gap | It/Node Time

     0     0 2547.76316    0  119 2105.00000 2547.76316  21.0%     -    0s
H    0     0                    2493.0000000 2547.76316  2.20%     -    0s
H    0     0                    2499.0000000 2547.76316  1.95%     -    0s
H    0     0                    2502.0000000 2547.76316  1.83%     -    0s
H    0     0                    2524.0000000 2547.76316  0.94%     -    0s
     0     0 2541.49323    0  190 2524.00000 2541.49323  0.69%     -    0s
H    0     0                    2531.0000000 2541.49323  0.41%     -    0s
     0     0 2541.07696    0  174 2531.00000 2541.07696  0.40%     -    0s
     0     0 2541.07371    0  176 2531.00000 2541.07371  0.40%     -    0s
     0     0 2537.56042    0  189 2531.00000 2537.56042  0.26%     -    0s
     0     0 2536.75280    0  138 2531.00000 2536.75280  0.23%     -    0s
     0     0 2536.66646    0  151 2531.00000 2536.66646  0.22%     -    0s
     0     0 2536.66143    0  128 2531.00000 2536.66143  0.22%     -    0s
H    0     0                    2532.0000000 2536.66143  0.18%     -    0s
     0     0 2535.65044    0  114 2532.00000 2535.65044  0.14%     -    0s
H    0     0                    2533.0000000 2535.65044  0.10%     -    0s
     0     0 2535.28514    0   96 2533.00000 2535.28514  0.09%     -    0s
     0     0 2535.07473    0   81 2533.00000 2535.07473  0.08%     -    0s
     0     0 2534.95502    0   91 2533.00000 2534.95502  0.08%     -    0s
     0     0 2534.92037    0   70 2533.00000 2534.92037  0.08%     -    0s
     0     0 2534.91799    0  102 2533.00000 2534.91799  0.08%     -    0s
     0     0 2534.77933    0   63 2533.00000 2534.77933  0.07%     -    0s
     0     0 2534.77933    0   67 2533.00000 2534.77933  0.07%     -    0s
     0     0 2534.77933    0   72 2533.00000 2534.77933  0.07%     -    0s
     0     0 2534.77933    0   75 2533.00000 2534.77933  0.07%     -    0s
     0     0 2534.77933    0   63 2533.00000 2534.77933  0.07%     -    0s
     0     0 2534.77933    0   66 2533.00000 2534.77933  0.07%     -    0s
     0     0 2534.77933    0   67 2533.00000 2534.77933  0.07%     -    0s
     0     0 2534.35103    0   55 2533.00000 2534.35103  0.05%     -    0s
     0     0 2534.27556    0   49 2533.00000 2534.27556  0.05%     -    0s
     0     0 2534.21963    0   42 2533.00000 2534.21963  0.05%     -    0s
     0     0 2534.15380    0   54 2533.00000 2534.15380  0.05%     -    0s
     0     0 2534.13204    0   45 2533.00000 2534.13204  0.04%     -    0s
     0     0 2534.11462    0   30 2533.00000 2534.11462  0.04%     -    0s
     0     0 2534.11462    0   31 2533.00000 2534.11462  0.04%     -    0s
     0     0     cutoff    0      2533.00000 2533.00000  0.00%     -    0s

Cutting planes:
  Gomory: 35
  Lift-and-project: 1
  Cover: 9
  Implied bound: 4
  Clique: 4
  MIR: 35
  StrongCG: 5
  GUB cover: 45
  Zero half: 1
  RLT: 19
  Relax-and-lift: 2
  PSD: 1

Explored 1 nodes (3860 simplex iterations) in 0.55 seconds (0.47 work units)
Thread count was 8 (of 8 available processors)

Solution count 10: 2533 2532 2532 ... 2493

Optimal solution found (tolerance 0.00e+00)
Best objective 2.533000000000e+03, best bound 2.533000000000e+03, gap 0.0000%
